NAME: dataset10
TYPE: TSP
COMMENT: 10 random locations
DIMENSION: 10
EDGE_WEIGHT_TYPE: EUC_2D
NODE_COORD_SECTION
1 321.7096336499 188.3323152108
2 156.9041336851 170.5442902882
3 206.9370330843 90.7255048616
4 201.7202692595 154.1776605101
5 152.3848019402 78.1362007168
6 8.4580351334 80.6563039724
7 136.6524129505 382.3178016726
8 65.1356993737 86.9797225187
9 230.253741054 451.9674355495
10 142.1991940127 520.8955223881
EOF
